(set-logic ALL)
(declare-const k Int)
(declare-fun s () (_ BitVec k))
(declare-fun t () (_ BitVec k))
(assert (distinct (distinct s (bvlshr (bvadd s s) (_ bv1 k))) (distinct s (bvand s (bvshl (_ bv1 k) (_ bv1 k))))))
(check-sat)
